p edge 79 889
e 1 2
e 1 5
e 1 11
e 1 14
e 1 17
e 1 18
e 1 19
e 1 20
e 1 21
e 1 22
e 1 23
e 1 31
e 1 33
e 1 39
e 1 41
e 1 44
e 1 45
e 1 46
e 1 47
e 1 54
e 1 55
e 1 56
e 1 62
e 1 64
e 1 65
e 1 66
e 1 73
e 1 78
e 1 79
e 2 4
e 2 5
e 2 25
e 2 27
e 2 32
e 2 34
e 2 49
e 2 54
e 2 59
e 2 60
e 2 65
e 2 66
e 2 70
e 2 73
e 2 74
e 2 77
e 3 12
e 3 14
e 3 17
e 3 27
e 3 29
e 3 36
e 3 42
e 3 43
e 3 46
e 3 47
e 3 51
e 3 57
e 3 59
e 3 61
e 3 71
e 3 76
e 3 79
e 4 5
e 4 7
e 4 8
e 4 12
e 4 15
e 4 16
e 4 18
e 4 22
e 4 25
e 4 27
e 4 28
e 4 33
e 4 35
e 4 36
e 4 40
e 4 41
e 4 42
e 4 43
e 4 51
e 4 54
e 4 59
e 4 62
e 4 66
e 4 69
e 4 72
e 5 7
e 5 8
e 5 10
e 5 12
e 5 16
e 5 17
e 5 20
e 5 24
e 5 33
e 5 39
e 5 40
e 5 41
e 5 42
e 5 51
e 5 53
e 5 57
e 5 59
e 5 61
e 5 62
e 5 64
e 5 67
e 5 71
e 5 73
e 5 74
e 5 76
e 6 19
e 6 23
e 6 25
e 6 26
e 6 28
e 6 29
e 6 31
e 6 32
e 6 34
e 6 36
e 6 37
e 6 39
e 6 40
e 6 49
e 6 51
e 6 52
e 6 54
e 6 56
e 6 57
e 6 59
e 6 63
e 6 66
e 6 67
e 6 68
e 6 69
e 6 72
e 7 8
e 7 9
e 7 12
e 7 16
e 7 26
e 7 39
e 7 40
e 7 42
e 7 46
e 7 47
e 7 48
e 7 54
e 7 55
e 7 57
e 7 62
e 7 63
e 7 64
e 7 71
e 7 74
e 7 79
e 8 10
e 8 16
e 8 17
e 8 24
e 8 28
e 8 34
e 8 53
e 8 54
e 8 58
e 8 59
e 8 67
e 8 72
e 8 74
e 8 75
e 9 11
e 9 16
e 9 17
e 9 20
e 9 21
e 9 23
e 9 27
e 9 40
e 9 43
e 9 47
e 9 50
e 9 51
e 9 52
e 9 62
e 9 65
e 9 73
e 9 75
e 9 76
e 9 78
e 9 79
e 10 11
e 10 12
e 10 19
e 10 24
e 10 25
e 10 27
e 10 29
e 10 35
e 10 36
e 10 41
e 10 46
e 10 48
e 10 49
e 10 53
e 10 55
e 10 59
e 10 68
e 10 70
e 10 72
e 10 76
e 11 13
e 11 19
e 11 26
e 11 34
e 11 35
e 11 39
e 11 42
e 11 46
e 11 50
e 11 51
e 11 54
e 11 61
e 11 67
e 11 71
e 11 73
e 11 76
e 11 78
e 12 14
e 12 18
e 12 22
e 12 31
e 12 34
e 12 35
e 12 36
e 12 37
e 12 41
e 12 44
e 12 45
e 12 46
e 12 47
e 12 48
e 12 49
e 12 54
e 12 56
e 12 62
e 12 72
e 12 75
e 12 78
e 12 79
e 13 23
e 13 24
e 13 25
e 13 29
e 13 31
e 13 33
e 13 34
e 13 39
e 13 45
e 13 46
e 13 47
e 13 49
e 13 59
e 13 64
e 13 65
e 13 70
e 13 71
e 13 77
e 13 78
e 13 79
e 14 15
e 14 27
e 14 28
e 14 29
e 14 36
e 14 37
e 14 39
e 14 41
e 14 48
e 14 50
e 14 53
e 14 55
e 14 59
e 14 63
e 14 70
e 14 72
e 14 73
e 14 74
e 14 76
e 14 77
e 15 18
e 15 22
e 15 29
e 15 32
e 15 33
e 15 35
e 15 37
e 15 38
e 15 39
e 15 41
e 15 44
e 15 49
e 15 50
e 15 60
e 15 62
e 15 63
e 15 68
e 15 70
e 15 73
e 15 75
e 16 26
e 16 38
e 16 40
e 16 46
e 16 58
e 16 70
e 16 71
e 16 74
e 16 75
e 17 21
e 17 24
e 17 26
e 17 31
e 17 35
e 17 36
e 17 42
e 17 43
e 17 45
e 17 47
e 17 48
e 17 50
e 17 53
e 17 55
e 17 56
e 17 60
e 17 62
e 17 65
e 17 66
e 17 75
e 18 21
e 18 26
e 18 28
e 18 35
e 18 37
e 18 38
e 18 39
e 18 41
e 18 50
e 18 51
e 18 56
e 18 58
e 18 63
e 18 64
e 18 68
e 18 70
e 18 71
e 18 72
e 18 76
e 18 77
e 19 34
e 19 36
e 19 39
e 19 40
e 19 44
e 19 45
e 19 48
e 19 50
e 19 63
e 19 64
e 19 70
e 19 71
e 19 72
e 19 78
e 20 26
e 20 30
e 20 34
e 20 39
e 20 43
e 20 45
e 20 51
e 20 53
e 20 55
e 20 58
e 20 62
e 20 71
e 20 74
e 20 75
e 21 22
e 21 23
e 21 24
e 21 26
e 21 27
e 21 28
e 21 31
e 21 33
e 21 37
e 21 42
e 21 47
e 21 51
e 21 53
e 21 54
e 21 55
e 21 56
e 21 57
e 21 61
e 21 64
e 21 67
e 21 68
e 21 69
e 21 74
e 22 25
e 22 26
e 22 29
e 22 33
e 22 34
e 22 35
e 22 38
e 22 42
e 22 55
e 22 59
e 22 63
e 22 65
e 22 66
e 22 71
e 22 73
e 22 78
e 23 27
e 23 29
e 23 32
e 23 33
e 23 34
e 23 37
e 23 41
e 23 47
e 23 49
e 23 53
e 23 59
e 23 62
e 23 64
e 23 67
e 23 68
e 23 70
e 23 71
e 23 74
e 24 27
e 24 30
e 24 32
e 24 33
e 24 37
e 24 50
e 24 53
e 24 61
e 24 62
e 24 64
e 24 70
e 24 71
e 24 75
e 25 28
e 25 32
e 25 36
e 25 40
e 25 43
e 25 46
e 25 60
e 25 61
e 25 62
e 25 65
e 25 77
e 25 78
e 26 27
e 26 28
e 26 29
e 26 30
e 26 32
e 26 33
e 26 34
e 26 37
e 26 39
e 26 45
e 26 48
e 26 53
e 26 58
e 26 64
e 26 68
e 26 72
e 26 75
e 26 76
e 26 78
e 27 29
e 27 30
e 27 34
e 27 36
e 27 44
e 27 47
e 27 48
e 27 53
e 27 55
e 27 56
e 27 59
e 27 63
e 27 68
e 27 69
e 27 72
e 27 73
e 27 78
e 28 29
e 28 31
e 28 34
e 28 37
e 28 39
e 28 43
e 28 45
e 28 52
e 28 53
e 28 56
e 28 61
e 28 62
e 28 65
e 28 67
e 28 68
e 28 73
e 28 75
e 28 76
e 29 38
e 29 40
e 29 47
e 29 51
e 29 57
e 29 58
e 29 61
e 29 65
e 29 70
e 29 74
e 30 33
e 30 34
e 30 38
e 30 39
e 30 52
e 30 56
e 30 57
e 30 60
e 30 61
e 30 68
e 30 70
e 30 71
e 30 75
e 31 35
e 31 37
e 31 38
e 31 39
e 31 41
e 31 49
e 31 50
e 31 53
e 31 55
e 31 58
e 31 61
e 31 62
e 31 73
e 31 79
e 32 35
e 32 40
e 32 43
e 32 45
e 32 48
e 32 49
e 32 53
e 32 54
e 32 58
e 32 65
e 32 71
e 32 75
e 32 76
e 33 35
e 33 44
e 33 50
e 33 52
e 33 55
e 33 58
e 33 59
e 33 62
e 33 64
e 33 65
e 33 67
e 33 72
e 33 74
e 33 76
e 33 77
e 33 78
e 34 35
e 34 40
e 34 42
e 34 48
e 34 50
e 34 53
e 34 57
e 34 59
e 34 60
e 34 62
e 34 66
e 34 67
e 34 69
e 34 75
e 34 78
e 35 38
e 35 41
e 35 46
e 35 49
e 35 53
e 35 54
e 35 55
e 35 60
e 35 63
e 35 65
e 35 67
e 35 68
e 35 71
e 35 76
e 35 78
e 36 37
e 36 44
e 36 48
e 36 49
e 36 52
e 36 54
e 36 59
e 36 67
e 36 72
e 36 74
e 36 77
e 37 42
e 37 49
e 37 52
e 37 55
e 37 56
e 37 57
e 37 58
e 37 66
e 37 68
e 37 73
e 37 75
e 37 77
e 37 79
e 38 39
e 38 46
e 38 56
e 38 57
e 38 59
e 38 60
e 38 61
e 38 68
e 38 69
e 38 72
e 38 78
e 38 79
e 39 40
e 39 43
e 39 44
e 39 45
e 39 46
e 39 47
e 39 49
e 39 55
e 39 57
e 39 65
e 39 66
e 39 72
e 39 75
e 39 76
e 39 77
e 40 41
e 40 42
e 40 43
e 40 44
e 40 46
e 40 47
e 40 49
e 40 52
e 40 59
e 40 62
e 40 63
e 40 64
e 40 69
e 40 70
e 40 74
e 40 77
e 41 45
e 41 48
e 41 50
e 41 51
e 41 57
e 41 61
e 41 62
e 41 65
e 41 73
e 41 76
e 41 77
e 42 48
e 42 59
e 42 61
e 42 66
e 43 44
e 43 53
e 43 56
e 43 58
e 43 61
e 43 67
e 43 69
e 43 73
e 43 75
e 43 76
e 43 77
e 43 78
e 43 79
e 44 47
e 44 51
e 44 52
e 44 53
e 44 58
e 44 72
e 44 73
e 44 77
e 44 79
e 45 46
e 45 59
e 45 62
e 45 65
e 45 68
e 45 69
e 45 70
e 45 76
e 45 77
e 45 79
e 46 47
e 46 59
e 46 61
e 46 67
e 46 70
e 46 71
e 46 76
e 47 49
e 47 52
e 47 55
e 47 65
e 47 67
e 47 72
e 48 51
e 48 55
e 48 56
e 48 60
e 48 64
e 48 69
e 48 73
e 48 75
e 48 78
e 48 79
e 49 53
e 49 54
e 49 57
e 49 60
e 49 61
e 49 62
e 49 64
e 49 65
e 49 67
e 49 70
e 49 72
e 49 79
e 50 52
e 50 63
e 50 66
e 50 78
e 51 52
e 51 53
e 51 63
e 51 64
e 51 70
e 51 75
e 51 78
e 52 57
e 52 58
e 52 61
e 52 65
e 52 66
e 52 68
e 52 69
e 52 70
e 52 79
e 53 56
e 53 60
e 53 61
e 53 62
e 53 72
e 54 55
e 54 56
e 54 60
e 54 68
e 54 70
e 54 75
e 54 77
e 55 58
e 55 63
e 55 65
e 55 74
e 55 76
e 55 78
e 56 58
e 56 59
e 56 65
e 56 66
e 56 69
e 56 70
e 56 72
e 56 74
e 56 75
e 57 58
e 57 60
e 57 66
e 57 67
e 57 70
e 57 72
e 57 75
e 57 76
e 57 77
e 58 60
e 58 62
e 58 75
e 59 60
e 59 62
e 59 63
e 59 67
e 59 69
e 59 70
e 59 72
e 60 62
e 60 63
e 60 69
e 60 74
e 60 75
e 60 78
e 61 63
e 61 66
e 61 67
e 61 72
e 61 74
e 61 75
e 61 78
e 61 79
e 62 63
e 62 65
e 62 67
e 62 71
e 63 65
e 63 69
e 63 73
e 64 69
e 64 70
e 64 74
e 64 76
e 64 77
e 64 78
e 64 79
e 65 71
e 65 73
e 65 74
e 66 70
e 66 75
e 66 79
e 67 73
e 67 77
e 68 69
e 68 70
e 68 72
e 68 77
e 69 70
e 69 71
e 69 72
e 69 79
e 70 73
e 70 76
e 70 78
e 71 76
e 71 77
e 72 75
e 72 76
e 72 78
e 77 78
e 78 79
